198 300 43 99 56 12 18 74 53 73 57 43 1 30 39 91 33 54 51 22 66 11 58 59 87 37 64 62 1 27 18 95 77 12 93 32 75 62 57 27 34 65 69 34 95 59 76 79 65 27 1 82 89 58 92 75 46 55 88 99 34 5 93 10 68 37 93 42 98 1 68 31 65 88 16 59 98 92 90 14 70 90 95 58 99 87 84 96 93 71 94 26 27 86 87 94 22 79 35 71 31 54 1 96 41 17 6 90 60 47 4 29 36 98 86 86 36 69 82 81 91 27 6 17 65 93 62 38 23 48 9 54 1 9 1 93 77 58 82 36 5 37 64 92 35 1 78 22 69 11 2 11 37 60 27 1 4 40 39 78 87 47 83 87 7 83 31 84 93 13 19 97 49 35 88 35 35 17 9 56 79 62 66 68 73 45 20 76 84 10 54 23 8 88 61 15 71 92 50 15 